10126.21,60.06,74.51
11473.51,53.01,65.76
11118.56,54.7,67.86
10010.27,60.76,75.37
10688.32,56.9,70.59
9339.96,65.12,80.78
10271.95,59.21,73.45
10252.49,59.32,73.59
10199.96,59.63,73.97
11165.16,54.47,67.58
9788.19,62.14,77.08
10545.99,57.67,71.54
10408.25,58.44,72.49
10932.4,55.63,69.01
10019.22,60.7,75.3
10942.91,55.58,68.95
10584.8,57.46,71.28
9707.25,62.66,77.72
10384.79,58.57,72.65
11975.65,50.79,63.0
